<?xml version = "1.0" standalone="yes"?>
<!-- This file has been generated by DOcplex version 2.23.222  -->
<CPLEXSolution version="1.0">
 <header
   problemName="CVRP"
   objectiveValue="9177.09"
  />
 <variables>
  <variable name="x_0_1" index="0" value="1.00000"/>
  <variable name="x_0_3" index="2" value="1.00000"/>
  <variable name="x_0_5" index="4" value="1.00000"/>
  <variable name="x_0_6" index="5" value="1.00000"/>
  <variable name="x_0_9" index="8" value="1.00000"/>
  <variable name="x_0_10" index="9" value="1.00000"/>
  <variable name="x_0_12" index="11" value="1.00000"/>
  <variable name="x_0_15" index="14" value="1.00000"/>
  <variable name="x_0_16" index="15" value="1.00000"/>
  <variable name="x_1_0" index="16" value="1.00000"/>
  <variable name="x_2_4" index="35" value="1.00000"/>
  <variable name="x_3_0" index="48" value="1.00000"/>
  <variable name="x_4_0" index="64" value="1.00000"/>
  <variable name="x_5_0" index="80" value="1.00000"/>
  <variable name="x_6_2" index="98" value="1.00000"/>
  <variable name="x_7_11" index="122" value="1.00000"/>
  <variable name="x_8_0" index="128" value="1.00000"/>
  <variable name="x_9_13" index="156" value="1.00000"/>
  <variable name="x_10_14" index="173" value="1.00000"/>
  <variable name="x_11_0" index="176" value="1.00000"/>
  <variable name="x_12_0" index="192" value="1.00000"/>
  <variable name="x_13_0" index="208" value="1.00000"/>
  <variable name="x_14_8" index="232" value="1.00000"/>
  <variable name="x_15_0" index="240" value="1.00000"/>
  <variable name="x_16_7" index="263" value="1.00000"/>
  <variable name="u_1" index="272" value="23.00000"/>
  <variable name="u_2" index="273" value="11.00000"/>
  <variable name="u_3" index="274" value="23.00000"/>
  <variable name="u_4" index="275" value="23.00000"/>
  <variable name="u_5" index="276" value="23.00000"/>
  <variable name="u_6" index="277" value="1.00000"/>
  <variable name="u_7" index="278" value="12.00000"/>
  <variable name="u_8" index="279" value="21.00000"/>
  <variable name="u_9" index="280" value="16.00000"/>
  <variable name="u_10" index="281" value="13.00000"/>
  <variable name="u_11" index="282" value="17.00000"/>
  <variable name="u_12" index="283" value="20.00000"/>
  <variable name="u_13" index="284" value="23.00000"/>
  <variable name="u_14" index="285" value="20.00000"/>
  <variable name="u_15" index="286" value="23.00000"/>
  <variable name="u_16" index="287" value="3.00000"/>
 </variables>
</CPLEXSolution>
